************************************************************************
file with basedata            : mm3_.bas
initial value random generator: 798277178
************************************************************************
projects                      :  1
jobs (incl. supersource/sink ):  12
horizon                       :  76
RESOURCES
  - renewable                 :  2   R
  - nonrenewable              :  2   N
  - doubly constrained        :  0   D
************************************************************************
PROJECT INFORMATION:
pronr.  #jobs rel.date duedate tardcost  MPM-Time
    1     10      0       14        2       14
************************************************************************
PRECEDENCE RELATIONS:
jobnr.    #modes  #successors   successors
   0        1          3           1   2   3
   1        3          1           4
   2        3          3           5   6   7
   3        3          1           4
   4        3          1           8
   5        3          3           8   9  10
   6        3          1           9
   7        3          2           8  10
   8        3          1          11
   9        3          1          11
  10        3          1          11
  11        1          0        
************************************************************************
REQUESTS/DURATIONS:
jobnr. mode duration  R 1  R 2  R 3  R 4  E(W 1)
------------------------------------------------------------------------
  0      1     0       0    0    0    0     0
  1      1     3       0    2    8    0    30
  2      1     6       5    0    4    0    54
  3      1     4       0    9    0    3    48
  4      1     6       0    5    0    8    78
  5      1     4       9    0    9    0    72
  6      1     7       7    0    0    4    77
  7      1     1       0    9    0    3    12
  8      1     2       9    0    0    8    34
  9      1     1       9    0    0    8    17
 10      1     3       0    8    5    0    39
 11      1     0       0    0    0    0     0
************************************************************************
RESOURCEAVAILABILITIES:
  R 1
   105
************************************************************************
RESOURCE LIMITS:
jobnr.  l(R 1)  u(R 1)
------------------------------------------------------------------------
  0        0       0
  1        5      10
  2        5       9
  3        7      12
  4        7      13
  5       10      18
  6        6      11
  7        7      12
  8        9      17
  9        9      17
 10        7      13
 11        0       0
************************************************************************
SCENARIOS:
------------------------------------------------------------------------
RESOURCE k = 1
s = 1: (0, 46, 49, 64, 54, 83, 78, 16, 53, 17, 37, 0)
s = 2: (0, 25, 70, 61, 77, 102, 75, 19, 36, 18, 24, 0)
s = 3: (0, 36, 56, 70, 55, 94, 70, 11, 33, 16, 26, 0)
s = 4: (0, 36, 50, 33, 62, 59, 69, 10, 52, 17, 36, 0)
s = 5: (0, 35, 72, 37, 101, 92, 80, 13, 25, 11, 25, 0)
s = 6: (0, 22, 65, 32, 108, 99, 92, 11, 37, 18, 58, 0)
s = 7: (0, 28, 39, 47, 62, 95, 83, 12, 49, 14, 36, 0)
s = 8: (0, 26, 50, 77, 82, 70, 62, 12, 24, 18, 33, 0)
s = 9: (0, 39, 75, 49, 97, 120, 73, 16, 38, 27, 63, 0)
s = 10: (0, 28, 38, 71, 53, 50, 81, 14, 35, 9, 45, 0)
s = 11: (0, 32, 59, 41, 58, 52, 60, 8, 31, 20, 45, 0)
s = 12: (0, 33, 81, 43, 88, 74, 82, 9, 23, 14, 34, 0)
s = 13: (0, 38, 33, 68, 55, 72, 111, 15, 30, 21, 30, 0)
s = 14: (0, 34, 61, 29, 72, 60, 89, 9, 25, 24, 28, 0)
s = 15: (0, 19, 50, 55, 88, 76, 53, 13, 26, 18, 46, 0)
s = 16: (0, 31, 46, 40, 64, 87, 70, 16, 32, 28, 63, 0)
s = 17: (0, 41, 81, 46, 90, 80, 55, 8, 45, 13, 32, 0)
s = 18: (0, 33, 45, 49, 102, 58, 92, 11, 59, 18, 31, 0)
s = 19: (0, 40, 48, 42, 127, 53, 63, 18, 25, 11, 52, 0)
s = 20: (0, 36, 48, 55, 92, 78, 59, 11, 47, 26, 45, 0)
s = 21: (0, 20, 68, 35, 76, 56, 73, 15, 40, 19, 58, 0)
s = 22: (0, 43, 29, 70, 62, 82, 50, 11, 38, 14, 45, 0)
s = 23: (0, 22, 78, 56, 57, 58, 72, 15, 35, 14, 69, 0)
s = 24: (0, 18, 57, 74, 96, 66, 71, 11, 19, 31, 31, 0)
s = 25: (0, 35, 49, 50, 63, 56, 67, 19, 31, 24, 37, 0)
s = 26: (0, 33, 50, 62, 55, 66, 88, 13, 40, 25, 30, 0)
s = 27: (0, 32, 70, 48, 77, 63, 106, 17, 50, 22, 49, 0)
s = 28: (0, 19, 52, 64, 106, 90, 62, 9, 21, 19, 43, 0)
s = 29: (0, 22, 63, 33, 92, 48, 93, 10, 24, 22, 47, 0)
s = 30: (0, 26, 58, 42, 82, 60, 93, 8, 36, 22, 32, 0)
s = 31: (0, 20, 49, 37, 75, 49, 105, 14, 40, 24, 26, 0)
s = 32: (0, 22, 40, 33, 81, 60, 66, 11, 28, 18, 41, 0)
s = 33: (0, 27, 58, 66, 105, 88, 91, 14, 23, 11, 43, 0)
s = 34: (0, 48, 51, 48, 70, 67, 80, 15, 36, 12, 24, 0)
s = 35: (0, 24, 66, 70, 70, 55, 99, 16, 59, 12, 44, 0)
s = 36: (0, 21, 63, 54, 51, 77, 61, 16, 37, 14, 63, 0)
s = 37: (0, 26, 59, 51, 62, 62, 97, 14, 33, 20, 32, 0)
s = 38: (0, 19, 60, 35, 61, 66, 61, 14, 34, 17, 30, 0)
s = 39: (0, 18, 49, 30, 60, 46, 73, 12, 41, 12, 31, 0)
s = 40: (0, 24, 42, 29, 121, 60, 56, 17, 34, 12, 57, 0)
s = 41: (0, 27, 42, 49, 101, 46, 92, 9, 37, 12, 51, 0)
s = 42: (0, 25, 37, 57, 114, 40, 78, 10, 31, 21, 39, 0)
s = 43: (0, 33, 85, 63, 50, 86, 98, 15, 21, 12, 28, 0)
s = 44: (0, 28, 103, 63, 94, 88, 80, 17, 26, 27, 31, 0)
s = 45: (0, 39, 31, 35, 44, 73, 91, 14, 34, 18, 37, 0)
s = 46: (0, 28, 63, 32, 60, 79, 65, 10, 23, 25, 39, 0)
s = 47: (0, 28, 54, 55, 62, 103, 71, 18, 36, 13, 34, 0)
s = 48: (0, 39, 60, 70, 106, 56, 80, 12, 55, 21, 30, 0)
s = 49: (0, 24, 32, 41, 70, 55, 55, 9, 48, 19, 32, 0)
s = 50: (0, 21, 67, 85, 76, 84, 88, 12, 34, 27, 38, 0)
s = 51: (0, 38, 84, 45, 47, 68, 85, 8, 30, 28, 46, 0)
s = 52: (0, 26, 74, 87, 83, 107, 62, 18, 33, 18, 31, 0)
s = 53: (0, 19, 44, 44, 69, 101, 91, 14, 23, 18, 40, 0)
s = 54: (0, 39, 47, 32, 51, 72, 51, 9, 26, 15, 53, 0)
s = 55: (0, 41, 36, 40, 84, 95, 106, 8, 24, 16, 47, 0)
s = 56: (0, 36, 49, 55, 70, 79, 75, 14, 23, 10, 62, 0)
s = 57: (0, 19, 80, 48, 68, 95, 45, 11, 29, 26, 28, 0)
s = 58: (0, 35, 67, 51, 59, 101, 50, 16, 32, 16, 34, 0)
s = 59: (0, 49, 34, 49, 75, 44, 52, 9, 31, 13, 32, 0)
s = 60: (0, 40, 91, 46, 57, 111, 104, 11, 27, 20, 26, 0)
s = 61: (0, 19, 80, 64, 78, 91, 82, 8, 26, 15, 32, 0)
s = 62: (0, 32, 71, 71, 83, 60, 95, 14, 37, 13, 42, 0)
s = 63: (0, 22, 34, 35, 97, 89, 76, 16, 34, 20, 44, 0)
s = 64: (0, 24, 39, 38, 69, 96, 62, 15, 27, 18, 45, 0)
s = 65: (0, 21, 44, 34, 63, 90, 112, 11, 40, 14, 32, 0)
s = 66: (0, 51, 47, 32, 42, 112, 84, 14, 23, 16, 32, 0)
s = 67: (0, 33, 34, 43, 102, 58, 71, 11, 27, 18, 40, 0)
s = 68: (0, 29, 31, 61, 79, 73, 104, 14, 25, 18, 25, 0)
s = 69: (0, 47, 41, 33, 89, 116, 81, 9, 31, 11, 37, 0)
s = 70: (0, 37, 62, 31, 77, 80, 90, 15, 23, 20, 54, 0)
s = 71: (0, 38, 50, 51, 91, 78, 71, 11, 28, 21, 49, 0)
s = 72: (0, 21, 59, 36, 110, 63, 58, 11, 50, 25, 38, 0)
s = 73: (0, 25, 46, 31, 82, 87, 99, 9, 39, 12, 52, 0)
s = 74: (0, 18, 71, 59, 59, 55, 89, 18, 28, 26, 54, 0)
s = 75: (0, 28, 39, 46, 50, 97, 71, 18, 21, 14, 33, 0)
s = 76: (0, 31, 56, 70, 61, 59, 68, 8, 38, 17, 48, 0)
s = 77: (0, 33, 51, 75, 84, 46, 80, 10, 46, 24, 42, 0)
s = 78: (0, 32, 71, 49, 82, 59, 73, 9, 31, 13, 36, 0)
s = 79: (0, 21, 32, 25, 110, 68, 107, 15, 41, 29, 37, 0)
s = 80: (0, 26, 48, 56, 88, 77, 59, 12, 23, 31, 33, 0)
s = 81: (0, 22, 54, 32, 112, 58, 83, 15, 29, 17, 34, 0)
s = 82: (0, 40, 45, 59, 81, 79, 121, 13, 35, 12, 24, 0)
s = 83: (0, 23, 72, 61, 70, 88, 81, 15, 28, 14, 42, 0)
s = 84: (0, 24, 42, 47, 112, 53, 111, 10, 52, 16, 38, 0)
s = 85: (0, 27, 66, 58, 74, 61, 49, 10, 46, 27, 51, 0)
s = 86: (0, 27, 39, 74, 70, 51, 70, 10, 35, 20, 21, 0)
s = 87: (0, 25, 58, 42, 94, 77, 62, 13, 28, 16, 39, 0)
s = 88: (0, 21, 93, 48, 83, 57, 81, 8, 50, 12, 53, 0)
s = 89: (0, 20, 74, 67, 54, 103, 76, 22, 55, 21, 60, 0)
s = 90: (0, 38, 41, 73, 51, 46, 82, 17, 37, 26, 29, 0)
s = 91: (0, 45, 38, 54, 76, 58, 100, 11, 45, 22, 32, 0)
s = 92: (0, 26, 50, 62, 85, 74, 63, 19, 39, 14, 28, 0)
s = 93: (0, 30, 64, 30, 64, 50, 89, 8, 24, 18, 39, 0)
s = 94: (0, 29, 32, 46, 94, 45, 75, 14, 69, 18, 58, 0)
s = 95: (0, 24, 50, 59, 42, 53, 72, 19, 43, 16, 32, 0)
s = 96: (0, 25, 70, 56, 69, 79, 91, 13, 24, 15, 59, 0)
s = 97: (0, 50, 39, 53, 86, 76, 91, 14, 31, 16, 61, 0)
s = 98: (0, 30, 66, 52, 86, 79, 70, 9, 50, 19, 25, 0)
s = 99: (0, 26, 40, 63, 119, 65, 68, 7, 25, 18, 30, 0)
s = 100: (0, 26, 54, 51, 68, 99, 57, 22, 26, 15, 51, 0)
s = 101: (0, 20, 41, 46, 76, 56, 82, 11, 33, 21, 65, 0)
s = 102: (0, 44, 58, 45, 74, 81, 64, 13, 19, 18, 58, 0)
s = 103: (0, 40, 51, 41, 69, 56, 53, 17, 41, 12, 31, 0)
s = 104: (0, 31, 79, 42, 76, 93, 91, 11, 32, 16, 27, 0)
s = 105: (0, 33, 53, 55, 50, 64, 68, 10, 48, 28, 34, 0)
s = 106: (0, 18, 61, 30, 77, 40, 121, 13, 25, 17, 27, 0)
s = 107: (0, 21, 80, 76, 63, 52, 71, 10, 35, 19, 39, 0)
s = 108: (0, 36, 42, 41, 104, 70, 66, 13, 45, 16, 51, 0)
s = 109: (0, 35, 36, 71, 47, 87, 44, 12, 41, 28, 40, 0)
s = 110: (0, 29, 49, 26, 96, 76, 57, 9, 33, 11, 27, 0)
s = 111: (0, 38, 55, 43, 71, 76, 131, 16, 28, 25, 60, 0)
s = 112: (0, 20, 60, 81, 93, 54, 103, 12, 23, 16, 31, 0)
s = 113: (0, 33, 59, 68, 68, 76, 63, 15, 41, 15, 33, 0)
s = 114: (0, 42, 62, 66, 98, 83, 75, 13, 37, 14, 31, 0)
s = 115: (0, 43, 49, 44, 62, 87, 107, 14, 45, 15, 30, 0)
s = 116: (0, 28, 58, 39, 119, 62, 99, 19, 26, 18, 64, 0)
s = 117: (0, 30, 38, 45, 112, 85, 82, 10, 54, 13, 57, 0)
s = 118: (0, 20, 46, 71, 92, 51, 66, 14, 40, 30, 52, 0)
s = 119: (0, 37, 58, 49, 85, 88, 68, 9, 32, 18, 31, 0)
s = 120: (0, 38, 56, 43, 57, 72, 57, 7, 35, 19, 57, 0)
s = 121: (0, 22, 66, 78, 66, 84, 77, 7, 53, 17, 45, 0)
s = 122: (0, 29, 55, 50, 101, 93, 119, 13, 44, 28, 36, 0)
s = 123: (0, 32, 71, 46, 98, 61, 43, 11, 47, 19, 47, 0)
s = 124: (0, 28, 53, 55, 62, 87, 82, 10, 48, 19, 56, 0)
s = 125: (0, 47, 50, 63, 47, 79, 103, 14, 38, 11, 27, 0)
s = 126: (0, 19, 37, 51, 42, 77, 73, 12, 39, 27, 34, 0)
s = 127: (0, 38, 72, 38, 116, 74, 84, 14, 21, 13, 29, 0)
s = 128: (0, 20, 51, 56, 55, 71, 71, 11, 38, 20, 39, 0)
s = 129: (0, 19, 47, 44, 67, 100, 103, 10, 24, 17, 43, 0)
s = 130: (0, 27, 41, 58, 67, 55, 62, 18, 28, 10, 32, 0)
s = 131: (0, 26, 84, 40, 58, 52, 99, 14, 43, 17, 66, 0)
s = 132: (0, 32, 39, 39, 62, 110, 93, 20, 28, 16, 27, 0)
s = 133: (0, 35, 71, 53, 52, 45, 44, 10, 35, 23, 27, 0)
s = 134: (0, 19, 53, 66, 64, 123, 62, 11, 32, 12, 33, 0)
s = 135: (0, 26, 37, 36, 96, 58, 103, 19, 29, 14, 54, 0)
s = 136: (0, 20, 31, 33, 48, 41, 149, 9, 25, 29, 49, 0)
s = 137: (0, 36, 33, 62, 84, 47, 54, 13, 34, 13, 37, 0)
s = 138: (0, 31, 39, 84, 44, 45, 86, 16, 39, 15, 39, 0)
s = 139: (0, 34, 42, 28, 97, 60, 57, 7, 57, 15, 34, 0)
s = 140: (0, 36, 34, 67, 48, 107, 74, 8, 38, 19, 27, 0)
s = 141: (0, 36, 58, 47, 58, 78, 60, 10, 34, 14, 21, 0)
s = 142: (0, 37, 77, 51, 62, 67, 84, 13, 26, 16, 41, 0)
s = 143: (0, 31, 53, 31, 66, 82, 48, 9, 48, 16, 48, 0)
s = 144: (0, 18, 60, 40, 78, 85, 76, 12, 21, 17, 36, 0)
s = 145: (0, 39, 52, 50, 80, 70, 61, 10, 30, 16, 37, 0)
s = 146: (0, 33, 46, 34, 66, 83, 44, 13, 22, 13, 35, 0)
s = 147: (0, 22, 49, 57, 60, 100, 74, 20, 39, 11, 54, 0)
s = 148: (0, 24, 50, 70, 122, 61, 54, 10, 35, 11, 73, 0)
s = 149: (0, 16, 64, 32, 77, 133, 64, 17, 26, 10, 32, 0)
s = 150: (0, 32, 32, 54, 67, 56, 59, 8, 62, 21, 34, 0)
s = 151: (0, 25, 44, 35, 91, 46, 63, 13, 32, 15, 48, 0)
s = 152: (0, 25, 84, 51, 51, 45, 73, 8, 30, 24, 27, 0)
s = 153: (0, 51, 38, 69, 60, 80, 76, 13, 54, 13, 47, 0)
s = 154: (0, 42, 54, 64, 77, 55, 72, 9, 39, 10, 29, 0)
s = 155: (0, 23, 76, 47, 50, 52, 59, 13, 20, 15, 45, 0)
s = 156: (0, 51, 37, 28, 95, 58, 86, 14, 46, 12, 43, 0)
s = 157: (0, 18, 53, 51, 56, 39, 68, 9, 36, 16, 33, 0)
s = 158: (0, 46, 43, 46, 53, 77, 102, 11, 35, 14, 46, 0)
s = 159: (0, 29, 59, 67, 66, 101, 86, 12, 23, 18, 34, 0)
s = 160: (0, 23, 38, 38, 97, 70, 100, 12, 22, 19, 63, 0)
s = 161: (0, 23, 40, 37, 84, 48, 93, 7, 39, 14, 42, 0)
s = 162: (0, 25, 47, 49, 99, 66, 88, 8, 31, 13, 42, 0)
s = 163: (0, 24, 92, 49, 78, 74, 96, 14, 32, 27, 41, 0)
s = 164: (0, 29, 83, 63, 74, 48, 92, 9, 50, 16, 54, 0)
s = 165: (0, 39, 32, 46, 45, 85, 96, 11, 36, 14, 31, 0)
s = 166: (0, 22, 47, 44, 52, 54, 59, 10, 40, 14, 36, 0)
s = 167: (0, 38, 52, 36, 112, 54, 51, 23, 25, 11, 43, 0)
s = 168: (0, 46, 37, 47, 86, 74, 41, 18, 40, 20, 28, 0)
s = 169: (0, 39, 36, 50, 76, 90, 81, 11, 29, 28, 35, 0)
s = 170: (0, 37, 93, 50, 72, 61, 63, 10, 24, 15, 51, 0)
s = 171: (0, 22, 45, 54, 46, 58, 87, 14, 26, 14, 45, 0)
s = 172: (0, 35, 51, 31, 73, 58, 67, 9, 26, 18, 39, 0)
s = 173: (0, 18, 44, 49, 70, 45, 97, 13, 45, 17, 64, 0)
s = 174: (0, 33, 35, 50, 113, 70, 69, 12, 22, 11, 39, 0)
s = 175: (0, 38, 56, 41, 60, 77, 48, 16, 42, 18, 33, 0)
s = 176: (0, 26, 53, 27, 43, 104, 99, 9, 37, 20, 26, 0)
s = 177: (0, 24, 34, 64, 67, 70, 61, 16, 29, 23, 40, 0)
s = 178: (0, 35, 62, 45, 54, 112, 82, 8, 37, 11, 32, 0)
s = 179: (0, 25, 78, 36, 97, 106, 122, 12, 32, 14, 37, 0)
s = 180: (0, 24, 40, 41, 84, 109, 68, 10, 21, 18, 28, 0)
s = 181: (0, 20, 47, 39, 78, 98, 46, 8, 45, 20, 37, 0)
s = 182: (0, 36, 45, 41, 76, 57, 111, 14, 46, 15, 35, 0)
s = 183: (0, 30, 36, 81, 74, 41, 85, 11, 29, 14, 33, 0)
s = 184: (0, 36, 84, 79, 70, 62, 121, 11, 26, 17, 44, 0)
s = 185: (0, 23, 30, 32, 51, 48, 90, 16, 36, 22, 31, 0)
s = 186: (0, 25, 41, 78, 57, 85, 54, 17, 27, 11, 56, 0)
s = 187: (0, 45, 71, 28, 72, 91, 77, 14, 39, 26, 42, 0)
s = 188: (0, 33, 48, 61, 96, 100, 77, 19, 25, 19, 27, 0)
s = 189: (0, 19, 53, 47, 99, 84, 84, 11, 20, 11, 46, 0)
s = 190: (0, 32, 54, 70, 92, 105, 59, 13, 24, 28, 39, 0)
s = 191: (0, 32, 73, 47, 62, 69, 81, 14, 23, 15, 65, 0)
s = 192: (0, 32, 52, 66, 86, 80, 83, 10, 28, 16, 60, 0)
s = 193: (0, 23, 50, 40, 40, 76, 83, 12, 20, 11, 37, 0)
s = 194: (0, 21, 53, 33, 80, 81, 50, 13, 25, 20, 34, 0)
s = 195: (0, 24, 56, 35, 63, 82, 53, 19, 33, 11, 30, 0)
s = 196: (0, 22, 55, 38, 45, 71, 61, 12, 22, 15, 36, 0)
s = 197: (0, 32, 80, 30, 73, 71, 91, 14, 61, 29, 65, 0)
s = 198: (0, 30, 67, 75, 55, 49, 55, 9, 32, 25, 55, 0)
s = 199: (0, 33, 47, 43, 120, 100, 109, 18, 33, 11, 45, 0)
s = 200: (0, 23, 50, 52, 54, 66, 114, 8, 31, 18, 40, 0)
************************************************************************
ES/LS-VALUES:
jobnr.   ES(i)    LS(i)
------------------------------------------------------------------------
  0        0        0
  1        0       55
  2        0       48
  3        0       53
  4        7       61
  5       11       62
  6       11       60
  7       11       68
  8       18       71
  9       24       74
 10       18       70
 11       25       76
************************************************************************
BIG-M-VALUES:
M1 = 25, M2 = 149
************************************************************************
